10	5	2	0
0	1	9	5	2	4	3	1	10	8	9	7	[0 0 0]	[0 0 0]	[0 0 0]	[0 0 0]	[0 0 0]	[0 0 0]	[0 0 0]	[0 0 0]	[0 0 0]
1	3	3	4	11	9	[-1 -2 8 0 2 0 10 26 -7]	[4 1 9]	[0 -1 2 0 1 3 26 -4 0]
2	3	3	10	11	5	[12 -3 12 12 24 13 4 0 -1]	[5 8 6]	[9 9 15 17 -3 20 8 8 -1]
3	3	3	7	11	6	[-3 0 -1 6 6 11 6 15 15]	[8 4 8]	[24 1 7 11 3 1 0 2 0]
4	3	2	8	11	[1 2 0 8 7 7 0 0 1]	[1 3 8]
5	3	3	11	8	6	[5 8 9]	[0 -3 -3 19 15 19 -2 4 -8]	[7 1 -4 16 -3 13 14 27 17]
6	3	1	11	[2 8 2]
7	3	1	11	[2 2 6]
8	3	2	2	11	[-28 -13 -29 -18 -15 -13 -31 -17 -10]	[8 7 10]
9	3	1	11	[4 2 1]
10	3	1	11	[5 1 10]
11	1	0
0	1	0	0	0	0	0	0	0	0
1	1	4	5	4	1	2	2	1	4
	2	1	5	4	1	2	2	1	4
	3	9	5	4	1	2	2	1	4
2	1	5	2	2	2	3	5	2	2
	2	8	2	2	2	3	5	2	2
	3	6	2	2	2	3	5	2	2
3	1	8	2	5	1	2	3	5	5
	2	4	2	5	1	2	3	5	5
	3	8	2	5	1	2	3	5	5
4	1	1	3	2	1	4	5	1	3
	2	3	3	2	1	4	5	1	3
	3	8	3	2	1	4	5	1	3
5	1	5	1	1	1	2	1	4	2
	2	8	1	1	1	2	1	4	2
	3	9	1	1	1	2	1	4	2
6	1	2	4	5	3	3	3	5	3
	2	8	4	5	3	3	3	5	3
	3	2	4	5	3	3	3	5	3
7	1	2	5	1	1	3	3	1	2
	2	2	5	1	1	3	3	1	2
	3	6	5	1	1	3	3	1	2
8	1	8	3	1	1	1	3	4	4
	2	7	3	1	1	1	3	4	4
	3	10	3	1	1	1	3	4	4
9	1	4	3	4	1	3	1	3	2
	2	2	3	4	1	3	1	3	2
	3	1	3	4	1	3	1	3	2
10	1	5	5	3	5	4	2	1	3
	2	1	5	3	5	4	2	1	3
	3	10	5	3	5	4	2	1	3
11	1	0	0	0	0	0	0	0	0
19	17	11	16	17	27	57
